50

100 19 319
97 8 421
96 19 361
92 12 392
89 18 303
86 11 362
83 18 334
83 15 332
82 17 388
79 19 471
77 3 300
76 9 289
73 16 219
73 9 227
70 20 443
69 13 467
69 13 383
61 12 189
60 16 463
60 14 386
60 9 453
58 2 281
56 16 310
56 17 356
53 16 218
51 5 202
49 10 278
48 1 187
48 4 287
48 6 457
47 5 319
46 13 415
42 13 213
41 5 203
36 3 357
35 7 264
34 9 450
32 5 229
32 6 330
32 6 247
31 1 248
22 4 424
17 4 467
12 1 402
12 4 387
6 1 370
6 1 165
5 2 75
3 1 224
2 1 240
